0 17 1
0 29 1
1 40 1
1 53 1
2 28 1
2 47 1
3 7 1
3 49 1
4 22 1
4 26 1
5 18 1
5 27 1
6 10 1
6 30 1
7 3 1
7 21 1
8 31 1
9 34 1
9 51 1
10 6 1
10 38 1
11 26 1
11 56 1
12 29 1
12 39 1
13 27 1
13 36 1
14 33 1
14 36 1
15 21 1
15 41 1
16 25 1
16 35 1
17 0 1
17 43 1
18 5 1
18 25 1
19 31 1
19 52 1
20 35 1
20 38 1
21 7 1
21 15 1
22 4 1
22 56 1
23 57 1
24 31 1
24 39 1
25 16 1
25 18 1
26 4 1
26 11 1
27 5 1
27 13 1
28 2 1
28 32 1
29 0 1
29 12 1
30 6 1
30 37 1
31 8 1
31 19 1
31 24 1
32 28 1
32 44 1
33 14 1
33 45 1
34 9 1
34 40 1
35 16 1
35 20 1
36 13 1
36 14 1
37 30 1
37 41 1
38 10 1
38 20 1
39 12 1
39 24 1
40 1 1
40 34 1
41 15 1
41 37 1
42 48 1
43 17 1
43 57 1
44 32 1
44 55 1
45 33 1
45 55 1
46 48 1
46 50 1
47 2 1
47 54 1
48 42 1
48 46 1
49 3 1
49 52 1
50 46 1
50 51 1
51 9 1
51 50 1
52 19 1
52 49 1
53 1 1
53 54 1
54 47 1
54 53 1
55 44 1
55 45 1
56 11 1
56 22 1
57 23 1
57 43 1
